Generations:
0: ((55, 18, 12, 14, 17, 1, 64, 16, 13, 72, 35, 73, 49, 63, 22, 19, 74, 27, 7, 15, 33, 65, 68, 43, 23, 11, 31, 25, 39, 29, 10, 44, 57, 0, 37, 30, 34, 61, 2, 71, 67, 28, 3, 6, 47, 59, 62, 5, 48, 4, 56, 50, 42, 66, 36, 46, 40, 8, 21, 70, 9, 20, 45, 58, 52, 38, 51, 24, 54, 69, 32, 53, 41, 26, 60), 1386)
1: ((55, 18, 12, 14, 17, 1, 64, 16, 13, 72, 35, 73, 49, 63, 22, 19, 74, 27, 7, 15, 33, 65, 68, 43, 23, 11, 31, 25, 39, 29, 10, 44, 57, 0, 37, 30, 34, 61, 2, 71, 67, 28, 3, 6, 47, 59, 62, 5, 48, 4, 56, 50, 42, 66, 36, 46, 40, 8, 21, 70, 9, 20, 45, 58, 52, 38, 51, 24, 54, 69, 32, 53, 41, 26, 60), 1386)
2: ((55, 18, 12, 14, 17, 1, 64, 16, 13, 72, 35, 73, 49, 63, 22, 19, 74, 27, 7, 15, 33, 65, 68, 43, 23, 11, 31, 25, 39, 29, 10, 44, 57, 0, 37, 30, 34, 61, 2, 71, 67, 28, 3, 6, 47, 59, 62, 5, 48, 4, 56, 50, 42, 66, 36, 46, 40, 8, 21, 70, 9, 20, 45, 58, 52, 38, 51, 24, 54, 69, 32, 53, 41, 26, 60), 1386)
3: ((55, 18, 12, 14, 17, 1, 64, 16, 13, 72, 35, 73, 49, 63, 22, 19, 74, 27, 7, 15, 33, 65, 68, 43, 23, 11, 31, 25, 39, 29, 10, 44, 57, 0, 37, 30, 34, 61, 2, 71, 67, 28, 3, 6, 47, 59, 62, 5, 48, 4, 56, 50, 42, 66, 36, 46, 40, 8, 21, 70, 9, 20, 45, 58, 52, 38, 51, 24, 54, 69, 32, 53, 41, 26, 60), 1386)
4: ((55, 18, 12, 14, 17, 1, 64, 16, 13, 72, 35, 73, 49, 63, 22, 19, 74, 27, 7, 15, 33, 65, 68, 43, 23, 11, 31, 25, 39, 29, 10, 44, 57, 0, 37, 30, 34, 61, 2, 71, 67, 28, 3, 6, 47, 59, 62, 5, 48, 4, 56, 50, 42, 66, 36, 46, 40, 8, 21, 70, 9, 20, 45, 58, 52, 38, 51, 24, 54, 69, 32, 53, 41, 26, 60), 1386)
5: ((55, 18, 12, 14, 17, 1, 64, 16, 13, 72, 35, 73, 49, 63, 22, 19, 74, 27, 7, 15, 33, 65, 68, 43, 23, 11, 31, 25, 39, 29, 10, 44, 57, 0, 37, 30, 34, 61, 2, 71, 67, 28, 3, 6, 47, 59, 62, 5, 48, 4, 56, 50, 42, 66, 36, 46, 40, 8, 21, 70, 9, 20, 45, 58, 52, 38, 51, 24, 54, 69, 32, 53, 41, 26, 60), 1386)
6: ((55, 18, 12, 14, 17, 1, 64, 16, 13, 72, 35, 73, 49, 63, 22, 19, 74, 27, 7, 15, 33, 65, 68, 43, 23, 11, 31, 25, 39, 29, 10, 44, 57, 0, 37, 30, 34, 61, 2, 71, 67, 28, 3, 6, 47, 59, 62, 5, 48, 4, 56, 50, 42, 66, 36, 46, 40, 8, 21, 70, 9, 20, 45, 58, 52, 38, 51, 24, 54, 69, 32, 53, 41, 26, 60), 1386)
7: ((55, 18, 12, 14, 17, 1, 64, 16, 13, 72, 35, 73, 49, 63, 22, 19, 74, 27, 7, 15, 33, 65, 68, 43, 23, 11, 31, 25, 39, 29, 10, 44, 57, 0, 37, 30, 34, 61, 2, 71, 67, 28, 3, 6, 47, 59, 62, 5, 48, 4, 56, 50, 42, 66, 36, 46, 40, 8, 21, 70, 9, 20, 45, 58, 52, 38, 51, 24, 54, 69, 32, 53, 41, 26, 60), 1386)
8: ((55, 18, 12, 14, 17, 1, 64, 16, 13, 72, 35, 73, 49, 63, 22, 19, 74, 27, 7, 15, 33, 65, 68, 43, 23, 11, 31, 25, 39, 29, 10, 44, 57, 0, 37, 30, 34, 61, 2, 71, 67, 28, 3, 6, 47, 59, 62, 5, 48, 4, 56, 50, 42, 66, 36, 46, 40, 8, 21, 70, 9, 20, 45, 58, 52, 38, 51, 24, 54, 69, 32, 53, 41, 26, 60), 1386)
9: ((55, 18, 12, 14, 17, 1, 64, 16, 13, 72, 35, 73, 49, 63, 22, 19, 74, 27, 7, 15, 33, 65, 68, 43, 23, 11, 31, 25, 39, 29, 10, 44, 57, 0, 37, 30, 34, 61, 2, 71, 67, 28, 3, 6, 47, 59, 62, 5, 48, 4, 56, 50, 42, 66, 36, 46, 40, 8, 21, 70, 9, 20, 45, 58, 52, 38, 51, 24, 54, 69, 32, 53, 41, 26, 60), 1386)
10: ((55, 18, 12, 14, 17, 1, 64, 16, 13, 72, 35, 73, 49, 63, 22, 19, 74, 27, 7, 15, 33, 65, 68, 43, 23, 11, 31, 25, 39, 29, 10, 44, 57, 0, 37, 30, 34, 61, 2, 71, 67, 28, 3, 6, 47, 59, 62, 5, 48, 4, 56, 50, 42, 66, 36, 46, 40, 8, 21, 70, 9, 20, 45, 58, 52, 38, 51, 24, 54, 69, 32, 53, 41, 26, 60), 1386)
11: ((55, 18, 12, 14, 17, 1, 64, 16, 13, 72, 35, 73, 49, 63, 22, 19, 74, 27, 7, 15, 33, 65, 68, 43, 23, 11, 31, 25, 39, 29, 10, 44, 57, 0, 37, 30, 34, 61, 2, 71, 67, 28, 3, 6, 47, 59, 62, 5, 48, 4, 56, 50, 42, 66, 36, 46, 40, 8, 21, 70, 9, 20, 45, 58, 52, 38, 51, 24, 54, 69, 32, 53, 41, 26, 60), 1386)
12: ((55, 18, 12, 14, 17, 1, 64, 16, 13, 72, 35, 73, 49, 63, 22, 19, 74, 27, 7, 15, 33, 65, 68, 43, 23, 11, 31, 25, 39, 29, 10, 44, 57, 0, 37, 30, 34, 61, 2, 71, 67, 28, 3, 6, 47, 59, 62, 5, 48, 4, 56, 50, 42, 66, 36, 46, 40, 8, 21, 70, 9, 20, 45, 58, 52, 38, 51, 24, 54, 69, 32, 53, 41, 26, 60), 1386)
13: ((55, 18, 12, 14, 17, 1, 64, 16, 13, 72, 35, 73, 49, 63, 22, 19, 74, 27, 7, 15, 33, 65, 68, 43, 23, 11, 31, 25, 39, 29, 10, 44, 57, 0, 37, 30, 34, 61, 2, 71, 67, 28, 3, 6, 47, 59, 62, 5, 48, 4, 56, 50, 42, 66, 36, 46, 40, 8, 21, 70, 9, 20, 45, 58, 52, 38, 51, 24, 54, 69, 32, 53, 41, 26, 60), 1386)
14: ((55, 18, 12, 14, 17, 1, 64, 16, 13, 72, 35, 73, 49, 63, 22, 19, 74, 27, 7, 15, 33, 65, 68, 43, 23, 11, 31, 25, 39, 29, 10, 44, 57, 0, 37, 30, 34, 61, 2, 71, 67, 28, 3, 6, 47, 59, 62, 5, 48, 4, 56, 50, 42, 66, 36, 46, 40, 8, 21, 70, 9, 20, 45, 58, 52, 38, 51, 24, 54, 69, 32, 53, 41, 26, 60), 1386)
15: ((55, 18, 12, 14, 17, 1, 64, 16, 13, 72, 35, 73, 49, 63, 22, 19, 74, 27, 7, 15, 33, 65, 68, 43, 23, 11, 31, 25, 39, 29, 10, 44, 57, 0, 37, 30, 34, 61, 2, 71, 67, 28, 3, 6, 47, 59, 62, 5, 48, 4, 56, 50, 42, 66, 36, 46, 40, 8, 21, 70, 9, 20, 45, 58, 52, 38, 51, 24, 54, 69, 32, 53, 41, 26, 60), 1386)
16: ((55, 18, 12, 14, 17, 1, 64, 16, 13, 72, 35, 73, 49, 63, 22, 19, 74, 27, 7, 15, 33, 65, 68, 43, 23, 11, 31, 25, 39, 29, 10, 44, 57, 0, 37, 30, 34, 61, 2, 71, 67, 28, 3, 6, 47, 59, 62, 5, 48, 4, 56, 50, 42, 66, 36, 46, 40, 8, 21, 70, 9, 20, 45, 58, 52, 38, 51, 24, 54, 69, 32, 53, 41, 26, 60), 1386)
17: ((55, 18, 12, 14, 17, 1, 64, 16, 13, 72, 35, 73, 49, 63, 22, 19, 74, 27, 7, 15, 33, 65, 68, 43, 23, 11, 31, 25, 39, 29, 10, 44, 57, 0, 37, 30, 34, 61, 2, 71, 67, 28, 3, 6, 47, 59, 62, 5, 48, 4, 56, 50, 42, 66, 36, 46, 40, 8, 21, 70, 9, 20, 45, 58, 52, 38, 51, 24, 54, 69, 32, 53, 41, 26, 60), 1386)
18: ((55, 18, 12, 14, 17, 1, 64, 16, 13, 72, 35, 73, 49, 63, 22, 19, 74, 27, 7, 15, 33, 65, 68, 43, 23, 11, 31, 25, 39, 29, 10, 44, 57, 0, 37, 30, 34, 61, 2, 71, 67, 28, 3, 6, 47, 59, 62, 5, 48, 4, 56, 50, 42, 66, 36, 46, 40, 8, 21, 70, 9, 20, 45, 58, 52, 38, 51, 24, 54, 69, 32, 53, 41, 26, 60), 1386)
19: ((55, 18, 12, 14, 17, 1, 64, 16, 13, 72, 35, 73, 49, 63, 22, 19, 74, 27, 7, 15, 33, 65, 68, 43, 23, 11, 31, 25, 39, 29, 10, 44, 57, 0, 37, 30, 34, 61, 2, 71, 67, 28, 3, 6, 47, 59, 62, 5, 48, 4, 56, 50, 42, 66, 36, 46, 40, 8, 21, 70, 9, 20, 45, 58, 52, 38, 51, 24, 54, 69, 32, 53, 41, 26, 60), 1386)
20: ((55, 18, 12, 14, 17, 1, 64, 16, 13, 72, 35, 73, 49, 63, 22, 19, 74, 27, 7, 15, 33, 65, 68, 43, 23, 11, 31, 25, 39, 29, 10, 44, 57, 0, 37, 30, 34, 61, 2, 71, 67, 28, 3, 6, 47, 59, 62, 5, 48, 4, 56, 50, 42, 66, 36, 46, 40, 8, 21, 70, 9, 20, 45, 58, 52, 38, 51, 24, 54, 69, 32, 53, 41, 26, 60), 1386)
21: ((55, 18, 12, 14, 17, 1, 64, 16, 13, 72, 35, 73, 49, 63, 22, 19, 74, 27, 7, 15, 33, 65, 68, 43, 23, 11, 31, 25, 39, 29, 10, 44, 57, 0, 37, 30, 34, 61, 2, 71, 67, 28, 3, 6, 47, 59, 62, 5, 48, 4, 56, 50, 42, 66, 36, 46, 40, 8, 21, 70, 9, 20, 45, 58, 52, 38, 51, 24, 54, 69, 32, 53, 41, 26, 60), 1386)
22: ((55, 18, 12, 14, 17, 1, 64, 16, 13, 72, 35, 73, 49, 63, 22, 19, 74, 27, 7, 15, 33, 65, 68, 43, 23, 11, 31, 25, 39, 29, 10, 44, 57, 0, 37, 30, 34, 61, 2, 71, 67, 28, 3, 6, 47, 59, 62, 5, 48, 4, 56, 50, 42, 66, 36, 46, 40, 8, 21, 70, 9, 20, 45, 58, 52, 38, 51, 24, 54, 69, 32, 53, 41, 26, 60), 1386)
23: ((55, 18, 12, 14, 17, 1, 64, 16, 13, 72, 35, 73, 49, 63, 22, 19, 74, 27, 7, 15, 33, 65, 68, 43, 23, 11, 31, 25, 39, 29, 10, 44, 57, 0, 37, 30, 34, 61, 2, 71, 67, 28, 3, 6, 47, 59, 62, 5, 48, 4, 56, 50, 42, 66, 36, 46, 40, 8, 21, 70, 9, 20, 45, 58, 52, 38, 51, 24, 54, 69, 32, 53, 41, 26, 60), 1386)
24: ((55, 18, 12, 14, 17, 1, 64, 16, 13, 72, 35, 73, 49, 63, 22, 19, 74, 27, 7, 15, 33, 65, 68, 43, 23, 11, 31, 25, 39, 29, 10, 44, 57, 0, 37, 30, 34, 61, 2, 71, 67, 28, 3, 6, 47, 59, 62, 5, 48, 4, 56, 50, 42, 66, 36, 46, 40, 8, 21, 70, 9, 20, 45, 58, 52, 38, 51, 24, 54, 69, 32, 53, 41, 26, 60), 1386)
25: ((55, 18, 12, 14, 17, 1, 64, 16, 13, 72, 35, 73, 49, 63, 22, 19, 74, 27, 7, 15, 33, 65, 68, 43, 23, 11, 31, 25, 39, 29, 10, 44, 57, 0, 37, 30, 34, 61, 2, 71, 67, 28, 3, 6, 47, 59, 62, 5, 48, 4, 56, 50, 42, 66, 36, 46, 40, 8, 21, 70, 9, 20, 45, 58, 52, 38, 51, 24, 54, 69, 32, 53, 41, 26, 60), 1386)
26: ((55, 18, 12, 14, 17, 1, 64, 16, 13, 72, 35, 73, 49, 63, 22, 19, 74, 27, 7, 15, 33, 65, 68, 43, 23, 11, 31, 25, 39, 29, 10, 44, 57, 0, 37, 30, 34, 61, 2, 71, 67, 28, 3, 6, 47, 59, 62, 5, 48, 4, 56, 50, 42, 66, 36, 46, 40, 8, 21, 70, 9, 20, 45, 58, 52, 38, 51, 24, 54, 69, 32, 53, 41, 26, 60), 1386)
27: ((55, 18, 12, 14, 17, 1, 64, 16, 13, 72, 35, 73, 49, 63, 22, 19, 74, 27, 7, 15, 33, 65, 68, 43, 23, 11, 31, 25, 39, 29, 10, 44, 57, 0, 37, 30, 34, 61, 2, 71, 67, 28, 3, 6, 47, 59, 62, 5, 48, 4, 56, 50, 42, 66, 36, 46, 40, 8, 21, 70, 9, 20, 45, 58, 52, 38, 51, 24, 54, 69, 32, 53, 41, 26, 60), 1386)
28: ((55, 18, 12, 14, 17, 1, 64, 16, 13, 72, 35, 73, 49, 63, 22, 19, 74, 27, 7, 15, 33, 65, 68, 43, 23, 11, 31, 25, 39, 29, 10, 44, 57, 0, 37, 30, 34, 61, 2, 71, 67, 28, 3, 6, 47, 59, 62, 5, 48, 4, 56, 50, 42, 66, 36, 46, 40, 8, 21, 70, 9, 20, 45, 58, 52, 38, 51, 24, 54, 69, 32, 53, 41, 26, 60), 1386)
29: ((55, 18, 12, 14, 17, 1, 64, 16, 13, 72, 35, 73, 49, 63, 22, 19, 74, 27, 7, 15, 33, 65, 68, 43, 23, 11, 31, 25, 39, 29, 10, 44, 57, 0, 37, 30, 34, 61, 2, 71, 67, 28, 3, 6, 47, 59, 62, 5, 48, 4, 56, 50, 42, 66, 36, 46, 40, 8, 21, 70, 9, 20, 45, 58, 52, 38, 51, 24, 54, 69, 32, 53, 41, 26, 60), 1386)
30: ((55, 18, 12, 14, 17, 1, 64, 16, 13, 72, 35, 73, 49, 63, 22, 19, 74, 27, 7, 15, 33, 65, 68, 43, 23, 11, 31, 25, 39, 29, 10, 44, 57, 0, 37, 30, 34, 61, 2, 71, 67, 28, 3, 6, 47, 59, 62, 5, 48, 4, 56, 50, 42, 66, 36, 46, 40, 8, 21, 70, 9, 20, 45, 58, 52, 38, 51, 24, 54, 69, 32, 53, 41, 26, 60), 1386)
31: ((55, 18, 12, 14, 17, 1, 64, 16, 13, 72, 35, 73, 49, 63, 22, 19, 74, 27, 7, 15, 33, 65, 68, 43, 23, 11, 31, 25, 39, 29, 10, 44, 57, 0, 37, 30, 34, 61, 2, 71, 67, 28, 3, 6, 47, 59, 62, 5, 48, 4, 56, 50, 42, 66, 36, 46, 40, 8, 21, 70, 9, 20, 45, 58, 52, 38, 51, 24, 54, 69, 32, 53, 41, 26, 60), 1386)
32: ((55, 18, 12, 14, 17, 1, 64, 16, 13, 72, 35, 73, 49, 63, 22, 19, 74, 27, 7, 15, 33, 65, 68, 43, 23, 11, 31, 25, 39, 29, 10, 44, 57, 0, 37, 30, 34, 61, 2, 71, 67, 28, 3, 6, 47, 59, 62, 5, 48, 4, 56, 50, 42, 66, 36, 46, 40, 8, 21, 70, 9, 20, 45, 58, 52, 38, 51, 24, 54, 69, 32, 53, 41, 26, 60), 1386)
33: ((55, 18, 12, 14, 17, 1, 64, 16, 13, 72, 35, 73, 49, 63, 22, 19, 74, 27, 7, 15, 33, 65, 68, 43, 23, 11, 31, 25, 39, 29, 10, 44, 57, 0, 37, 30, 34, 61, 2, 71, 67, 28, 3, 6, 47, 59, 62, 5, 48, 4, 56, 50, 42, 66, 36, 46, 40, 8, 21, 70, 9, 20, 45, 58, 52, 38, 51, 24, 54, 69, 32, 53, 41, 26, 60), 1386)
34: ((55, 18, 12, 14, 17, 1, 64, 16, 13, 72, 35, 73, 49, 63, 22, 19, 74, 27, 7, 15, 33, 65, 68, 43, 23, 11, 31, 25, 39, 29, 10, 44, 57, 0, 37, 30, 34, 61, 2, 71, 67, 28, 3, 6, 47, 59, 62, 5, 48, 4, 56, 50, 42, 66, 36, 46, 40, 8, 21, 70, 9, 20, 45, 58, 52, 38, 51, 24, 54, 69, 32, 53, 41, 26, 60), 1386)
35: ((55, 18, 12, 14, 17, 1, 64, 16, 13, 72, 35, 73, 49, 63, 22, 19, 74, 27, 7, 15, 33, 65, 68, 43, 23, 11, 31, 25, 39, 29, 10, 44, 57, 0, 37, 30, 34, 61, 2, 71, 67, 28, 3, 6, 47, 59, 62, 5, 48, 4, 56, 50, 42, 66, 36, 46, 40, 8, 21, 70, 9, 20, 45, 58, 52, 38, 51, 24, 54, 69, 32, 53, 41, 26, 60), 1386)
36: ((55, 18, 12, 14, 17, 1, 64, 16, 13, 72, 35, 73, 49, 63, 22, 19, 74, 27, 7, 15, 33, 65, 68, 43, 23, 11, 31, 25, 39, 29, 10, 44, 57, 0, 37, 30, 34, 61, 2, 71, 67, 28, 3, 6, 47, 59, 62, 5, 48, 4, 56, 50, 42, 66, 36, 46, 40, 8, 21, 70, 9, 20, 45, 58, 52, 38, 51, 24, 54, 69, 32, 53, 41, 26, 60), 1386)
37: ((55, 18, 12, 14, 17, 1, 64, 16, 13, 72, 35, 73, 49, 63, 22, 19, 74, 27, 7, 15, 33, 65, 68, 43, 23, 11, 31, 25, 39, 29, 10, 44, 57, 0, 37, 30, 34, 61, 2, 71, 67, 28, 3, 6, 47, 59, 62, 5, 48, 4, 56, 50, 42, 66, 36, 46, 40, 8, 21, 70, 9, 20, 45, 58, 52, 38, 51, 24, 54, 69, 32, 53, 41, 26, 60), 1386)
38: ((55, 18, 12, 14, 17, 1, 64, 16, 13, 72, 35, 73, 49, 63, 22, 19, 74, 27, 7, 15, 33, 65, 68, 43, 23, 11, 31, 25, 39, 29, 10, 44, 57, 0, 37, 30, 34, 61, 2, 71, 67, 28, 3, 6, 47, 59, 62, 5, 48, 4, 56, 50, 42, 66, 36, 46, 40, 8, 21, 70, 9, 20, 45, 58, 52, 38, 51, 24, 54, 69, 32, 53, 41, 26, 60), 1386)
39: ((55, 18, 12, 14, 17, 1, 64, 16, 13, 72, 35, 73, 49, 63, 22, 19, 74, 27, 7, 15, 33, 65, 68, 43, 23, 11, 31, 25, 39, 29, 10, 44, 57, 0, 37, 30, 34, 61, 2, 71, 67, 28, 3, 6, 47, 59, 62, 5, 48, 4, 56, 50, 42, 66, 36, 46, 40, 8, 21, 70, 9, 20, 45, 58, 52, 38, 51, 24, 54, 69, 32, 53, 41, 26, 60), 1386)
40: ((55, 18, 12, 14, 17, 1, 64, 16, 13, 72, 35, 73, 49, 63, 22, 19, 74, 27, 7, 15, 33, 65, 68, 43, 23, 11, 31, 25, 39, 29, 10, 44, 57, 0, 37, 30, 34, 61, 2, 71, 67, 28, 3, 6, 47, 59, 62, 5, 48, 4, 56, 50, 42, 66, 36, 46, 40, 8, 21, 70, 9, 20, 45, 58, 52, 38, 51, 24, 54, 69, 32, 53, 41, 26, 60), 1386)
41: ((55, 18, 12, 14, 17, 1, 64, 16, 13, 72, 35, 73, 49, 63, 22, 19, 74, 27, 7, 15, 33, 65, 68, 43, 23, 11, 31, 25, 39, 29, 10, 44, 57, 0, 37, 30, 34, 61, 2, 71, 67, 28, 3, 6, 47, 59, 62, 5, 48, 4, 56, 50, 42, 66, 36, 46, 40, 8, 21, 70, 9, 20, 45, 58, 52, 38, 51, 24, 54, 69, 32, 53, 41, 26, 60), 1386)
42: ((55, 18, 12, 14, 17, 1, 64, 16, 13, 72, 35, 73, 49, 63, 22, 19, 74, 27, 7, 15, 33, 65, 68, 43, 23, 11, 31, 25, 39, 29, 10, 44, 57, 0, 37, 30, 34, 61, 2, 71, 67, 28, 3, 6, 47, 59, 62, 5, 48, 4, 56, 50, 42, 66, 36, 46, 40, 8, 21, 70, 9, 20, 45, 58, 52, 38, 51, 24, 54, 69, 32, 53, 41, 26, 60), 1386)
43: ((55, 18, 12, 14, 17, 1, 64, 16, 13, 72, 35, 73, 49, 63, 22, 19, 74, 27, 7, 15, 33, 65, 68, 43, 23, 11, 31, 25, 39, 29, 10, 44, 57, 0, 37, 30, 34, 61, 2, 71, 67, 28, 3, 6, 47, 59, 62, 5, 48, 4, 56, 50, 42, 66, 36, 46, 40, 8, 21, 70, 9, 20, 45, 58, 52, 38, 51, 24, 54, 69, 32, 53, 41, 26, 60), 1386)
44: ((55, 18, 12, 14, 17, 1, 64, 16, 13, 72, 35, 73, 49, 63, 22, 19, 74, 27, 7, 15, 33, 65, 68, 43, 23, 11, 31, 25, 39, 29, 10, 44, 57, 0, 37, 30, 34, 61, 2, 71, 67, 28, 3, 6, 47, 59, 62, 5, 48, 4, 56, 50, 42, 66, 36, 46, 40, 8, 21, 70, 9, 20, 45, 58, 52, 38, 51, 24, 54, 69, 32, 53, 41, 26, 60), 1386)
45: ((55, 18, 12, 14, 17, 1, 64, 16, 13, 72, 35, 73, 49, 63, 22, 19, 74, 27, 7, 15, 33, 65, 68, 43, 23, 11, 31, 25, 39, 29, 10, 44, 57, 0, 37, 30, 34, 61, 2, 71, 67, 28, 3, 6, 47, 59, 62, 5, 48, 4, 56, 50, 42, 66, 36, 46, 40, 8, 21, 70, 9, 20, 45, 58, 52, 38, 51, 24, 54, 69, 32, 53, 41, 26, 60), 1386)
46: ((55, 18, 12, 14, 17, 1, 64, 16, 13, 72, 35, 73, 49, 63, 22, 19, 74, 27, 7, 15, 33, 65, 68, 43, 23, 11, 31, 25, 39, 29, 10, 44, 57, 0, 37, 30, 34, 61, 2, 71, 67, 28, 3, 6, 47, 59, 62, 5, 48, 4, 56, 50, 42, 66, 36, 46, 40, 8, 21, 70, 9, 20, 45, 58, 52, 38, 51, 24, 54, 69, 32, 53, 41, 26, 60), 1386)
47: ((55, 18, 12, 14, 17, 1, 64, 16, 13, 72, 35, 73, 49, 63, 22, 19, 74, 27, 7, 15, 33, 65, 68, 43, 23, 11, 31, 25, 39, 29, 10, 44, 57, 0, 37, 30, 34, 61, 2, 71, 67, 28, 3, 6, 47, 59, 62, 5, 48, 4, 56, 50, 42, 66, 36, 46, 40, 8, 21, 70, 9, 20, 45, 58, 52, 38, 51, 24, 54, 69, 32, 53, 41, 26, 60), 1386)
48: ((55, 18, 12, 14, 17, 1, 64, 16, 13, 72, 35, 73, 49, 63, 22, 19, 74, 27, 7, 15, 33, 65, 68, 43, 23, 11, 31, 25, 39, 29, 10, 44, 57, 0, 37, 30, 34, 61, 2, 71, 67, 28, 3, 6, 47, 59, 62, 5, 48, 4, 56, 50, 42, 66, 36, 46, 40, 8, 21, 70, 9, 20, 45, 58, 52, 38, 51, 24, 54, 69, 32, 53, 41, 26, 60), 1386)
49: ((55, 18, 12, 14, 17, 1, 64, 16, 13, 72, 35, 73, 49, 63, 22, 19, 74, 27, 7, 15, 33, 65, 68, 43, 23, 11, 31, 25, 39, 29, 10, 44, 57, 0, 37, 30, 34, 61, 2, 71, 67, 28, 3, 6, 47, 59, 62, 5, 48, 4, 56, 50, 42, 66, 36, 46, 40, 8, 21, 70, 9, 20, 45, 58, 52, 38, 51, 24, 54, 69, 32, 53, 41, 26, 60), 1386)
50: ((55, 18, 12, 14, 17, 1, 64, 16, 13, 72, 35, 73, 49, 63, 22, 19, 74, 27, 7, 15, 33, 65, 68, 43, 23, 11, 31, 25, 39, 29, 10, 44, 57, 0, 37, 30, 34, 61, 2, 71, 67, 28, 3, 6, 47, 59, 62, 5, 48, 4, 56, 50, 42, 66, 36, 46, 40, 8, 21, 70, 9, 20, 45, 58, 52, 38, 51, 24, 54, 69, 32, 53, 41, 26, 60), 1386)
51: ((55, 18, 12, 14, 17, 1, 64, 16, 13, 72, 35, 73, 49, 63, 22, 19, 74, 27, 7, 15, 33, 65, 68, 43, 23, 11, 31, 25, 39, 29, 10, 44, 57, 0, 37, 30, 34, 61, 2, 71, 67, 28, 3, 6, 47, 59, 62, 5, 48, 4, 56, 50, 42, 66, 36, 46, 40, 8, 21, 70, 9, 20, 45, 58, 52, 38, 51, 24, 54, 69, 32, 53, 41, 26, 60), 1386)
52: ((55, 18, 12, 14, 17, 1, 64, 16, 13, 72, 35, 73, 49, 63, 22, 19, 74, 27, 7, 15, 33, 65, 68, 43, 23, 11, 31, 25, 39, 29, 10, 44, 57, 0, 37, 30, 34, 61, 2, 71, 67, 28, 3, 6, 47, 59, 62, 5, 48, 4, 56, 50, 42, 66, 36, 46, 40, 8, 21, 70, 9, 20, 45, 58, 52, 38, 51, 24, 54, 69, 32, 53, 41, 26, 60), 1386)
53: ((55, 18, 12, 14, 17, 1, 64, 16, 13, 72, 35, 73, 49, 63, 22, 19, 74, 27, 7, 15, 33, 65, 68, 43, 23, 11, 31, 25, 39, 29, 10, 44, 57, 0, 37, 30, 34, 61, 2, 71, 67, 28, 3, 6, 47, 59, 62, 5, 48, 4, 56, 50, 42, 66, 36, 46, 40, 8, 21, 70, 9, 20, 45, 58, 52, 38, 51, 24, 54, 69, 32, 53, 41, 26, 60), 1386)
54: ((55, 18, 12, 14, 17, 1, 64, 16, 13, 72, 35, 73, 49, 63, 22, 19, 74, 27, 7, 15, 33, 65, 68, 43, 23, 11, 31, 25, 39, 29, 10, 44, 57, 0, 37, 30, 34, 61, 2, 71, 67, 28, 3, 6, 47, 59, 62, 5, 48, 4, 56, 50, 42, 66, 36, 46, 40, 8, 21, 70, 9, 20, 45, 58, 52, 38, 51, 24, 54, 69, 32, 53, 41, 26, 60), 1386)
55: ((55, 18, 12, 14, 17, 1, 64, 16, 13, 72, 35, 73, 49, 63, 22, 19, 74, 27, 7, 15, 33, 65, 68, 43, 23, 11, 31, 25, 39, 29, 10, 44, 57, 0, 37, 30, 34, 61, 2, 71, 67, 28, 3, 6, 47, 59, 62, 5, 48, 4, 56, 50, 42, 66, 36, 46, 40, 8, 21, 70, 9, 20, 45, 58, 52, 38, 51, 24, 54, 69, 32, 53, 41, 26, 60), 1386)
56: ((55, 18, 12, 14, 17, 1, 64, 16, 13, 72, 35, 73, 49, 63, 22, 19, 74, 27, 7, 15, 33, 65, 68, 43, 23, 11, 31, 25, 39, 29, 10, 44, 57, 0, 37, 30, 34, 61, 2, 71, 67, 28, 3, 6, 47, 59, 62, 5, 48, 4, 56, 50, 42, 66, 36, 46, 40, 8, 21, 70, 9, 20, 45, 58, 52, 38, 51, 24, 54, 69, 32, 53, 41, 26, 60), 1386)
57: ((55, 18, 12, 14, 17, 1, 64, 16, 13, 72, 35, 73, 49, 63, 22, 19, 74, 27, 7, 15, 33, 65, 68, 43, 23, 11, 31, 25, 39, 29, 10, 44, 57, 0, 37, 30, 34, 61, 2, 71, 67, 28, 3, 6, 47, 59, 62, 5, 48, 4, 56, 50, 42, 66, 36, 46, 40, 8, 21, 70, 9, 20, 45, 58, 52, 38, 51, 24, 54, 69, 32, 53, 41, 26, 60), 1386)
58: ((55, 18, 12, 14, 17, 1, 64, 16, 13, 72, 35, 73, 49, 63, 22, 19, 74, 27, 7, 15, 33, 65, 68, 43, 23, 11, 31, 25, 39, 29, 10, 44, 57, 0, 37, 30, 34, 61, 2, 71, 67, 28, 3, 6, 47, 59, 62, 5, 48, 4, 56, 50, 42, 66, 36, 46, 40, 8, 21, 70, 9, 20, 45, 58, 52, 38, 51, 24, 54, 69, 32, 53, 41, 26, 60), 1386)
59: ((55, 18, 12, 14, 17, 1, 64, 16, 13, 72, 35, 73, 49, 63, 22, 19, 74, 27, 7, 15, 33, 65, 68, 43, 23, 11, 31, 25, 39, 29, 10, 44, 57, 0, 37, 30, 34, 61, 2, 71, 67, 28, 3, 6, 47, 59, 62, 5, 48, 4, 56, 50, 42, 66, 36, 46, 40, 8, 21, 70, 9, 20, 45, 58, 52, 38, 51, 24, 54, 69, 32, 53, 41, 26, 60), 1386)
60: ((55, 18, 12, 14, 17, 1, 64, 16, 13, 72, 35, 73, 49, 63, 22, 19, 74, 27, 7, 15, 33, 65, 68, 43, 23, 11, 31, 25, 39, 29, 10, 44, 57, 0, 37, 30, 34, 61, 2, 71, 67, 28, 3, 6, 47, 59, 62, 5, 48, 4, 56, 50, 42, 66, 36, 46, 40, 8, 21, 70, 9, 20, 45, 58, 52, 38, 51, 24, 54, 69, 32, 53, 41, 26, 60), 1386)
61: ((55, 18, 12, 14, 17, 1, 64, 16, 13, 72, 35, 73, 49, 63, 22, 19, 74, 27, 7, 15, 33, 65, 68, 43, 23, 11, 31, 25, 39, 29, 10, 44, 57, 0, 37, 30, 34, 61, 2, 71, 67, 28, 3, 6, 47, 59, 62, 5, 48, 4, 56, 50, 42, 66, 36, 46, 40, 8, 21, 70, 9, 20, 45, 58, 52, 38, 51, 24, 54, 69, 32, 53, 41, 26, 60), 1386)
62: ((55, 18, 12, 14, 17, 1, 64, 16, 13, 72, 35, 73, 49, 63, 22, 19, 74, 27, 7, 15, 33, 65, 68, 43, 23, 11, 31, 25, 39, 29, 10, 44, 57, 0, 37, 30, 34, 61, 2, 71, 67, 28, 3, 6, 47, 59, 62, 5, 48, 4, 56, 50, 42, 66, 36, 46, 40, 8, 21, 70, 9, 20, 45, 58, 52, 38, 51, 24, 54, 69, 32, 53, 41, 26, 60), 1386)
63: ((55, 18, 12, 14, 17, 1, 64, 16, 13, 72, 35, 73, 49, 63, 22, 19, 74, 27, 7, 15, 33, 65, 68, 43, 23, 11, 31, 25, 39, 29, 10, 44, 57, 0, 37, 30, 34, 61, 2, 71, 67, 28, 3, 6, 47, 59, 62, 5, 48, 4, 56, 50, 42, 66, 36, 46, 40, 8, 21, 70, 9, 20, 45, 58, 52, 38, 51, 24, 54, 69, 32, 53, 41, 26, 60), 1386)
64: ((55, 18, 12, 14, 17, 1, 64, 16, 13, 72, 35, 73, 49, 63, 22, 19, 74, 27, 7, 15, 33, 65, 68, 43, 23, 11, 31, 25, 39, 29, 10, 44, 57, 0, 37, 30, 34, 61, 2, 71, 67, 28, 3, 6, 47, 59, 62, 5, 48, 4, 56, 50, 42, 66, 36, 46, 40, 8, 21, 70, 9, 20, 45, 58, 52, 38, 51, 24, 54, 69, 32, 53, 41, 26, 60), 1386)
65: ((55, 18, 12, 14, 17, 1, 64, 16, 13, 72, 35, 73, 49, 63, 22, 19, 74, 27, 7, 15, 33, 65, 68, 43, 23, 11, 31, 25, 39, 29, 10, 44, 57, 0, 37, 30, 34, 61, 2, 71, 67, 28, 3, 6, 47, 59, 62, 5, 48, 4, 56, 50, 42, 66, 36, 46, 40, 8, 21, 70, 9, 20, 45, 58, 52, 38, 51, 24, 54, 69, 32, 53, 41, 26, 60), 1386)
66: ((55, 18, 12, 14, 17, 1, 64, 16, 13, 72, 35, 73, 49, 63, 22, 19, 74, 27, 7, 15, 33, 65, 68, 43, 23, 11, 31, 25, 39, 29, 10, 44, 57, 0, 37, 30, 34, 61, 2, 71, 67, 28, 3, 6, 47, 59, 62, 5, 48, 4, 56, 50, 42, 66, 36, 46, 40, 8, 21, 70, 9, 20, 45, 58, 52, 38, 51, 24, 54, 69, 32, 53, 41, 26, 60), 1386)
67: ((55, 18, 12, 14, 17, 1, 64, 16, 13, 72, 35, 73, 49, 63, 22, 19, 74, 27, 7, 15, 33, 65, 68, 43, 23, 11, 31, 25, 39, 29, 10, 44, 57, 0, 37, 30, 34, 61, 2, 71, 67, 28, 3, 6, 47, 59, 62, 5, 48, 4, 56, 50, 42, 66, 36, 46, 40, 8, 21, 70, 9, 20, 45, 58, 52, 38, 51, 24, 54, 69, 32, 53, 41, 26, 60), 1386)
68: ((55, 18, 12, 14, 17, 1, 64, 16, 13, 72, 35, 73, 49, 63, 22, 19, 74, 27, 7, 15, 33, 65, 68, 43, 23, 11, 31, 25, 39, 29, 10, 44, 57, 0, 37, 30, 34, 61, 2, 71, 67, 28, 3, 6, 47, 59, 62, 5, 48, 4, 56, 50, 42, 66, 36, 46, 40, 8, 21, 70, 9, 20, 45, 58, 52, 38, 51, 24, 54, 69, 32, 53, 41, 26, 60), 1386)
69: ((55, 18, 12, 14, 17, 1, 64, 16, 13, 72, 35, 73, 49, 63, 22, 19, 74, 27, 7, 15, 33, 65, 68, 43, 23, 11, 31, 25, 39, 29, 10, 44, 57, 0, 37, 30, 34, 61, 2, 71, 67, 28, 3, 6, 47, 59, 62, 5, 48, 4, 56, 50, 42, 66, 36, 46, 40, 8, 21, 70, 9, 20, 45, 58, 52, 38, 51, 24, 54, 69, 32, 53, 41, 26, 60), 1386)
70: ((55, 18, 12, 14, 17, 1, 64, 16, 13, 72, 35, 73, 49, 63, 22, 19, 74, 27, 7, 15, 33, 65, 68, 43, 23, 11, 31, 25, 39, 29, 10, 44, 57, 0, 37, 30, 34, 61, 2, 71, 67, 28, 3, 6, 47, 59, 62, 5, 48, 4, 56, 50, 42, 66, 36, 46, 40, 8, 21, 70, 9, 20, 45, 58, 52, 38, 51, 24, 54, 69, 32, 53, 41, 26, 60), 1386)
71: ((55, 18, 12, 14, 17, 1, 64, 16, 13, 72, 35, 73, 49, 63, 22, 19, 74, 27, 7, 15, 33, 65, 68, 43, 23, 11, 31, 25, 39, 29, 10, 44, 57, 0, 37, 30, 34, 61, 2, 71, 67, 28, 3, 6, 47, 59, 62, 5, 48, 4, 56, 50, 42, 66, 36, 46, 40, 8, 21, 70, 9, 20, 45, 58, 52, 38, 51, 24, 54, 69, 32, 53, 41, 26, 60), 1386)
72: ((55, 18, 12, 14, 17, 1, 64, 16, 13, 72, 35, 73, 49, 63, 22, 19, 74, 27, 7, 15, 33, 65, 68, 43, 23, 11, 31, 25, 39, 29, 10, 44, 57, 0, 37, 30, 34, 61, 2, 71, 67, 28, 3, 6, 47, 59, 62, 5, 48, 4, 56, 50, 42, 66, 36, 46, 40, 8, 21, 70, 9, 20, 45, 58, 52, 38, 51, 24, 54, 69, 32, 53, 41, 26, 60), 1386)
73: ((55, 18, 12, 14, 17, 1, 64, 16, 13, 72, 35, 73, 49, 63, 22, 19, 74, 27, 7, 15, 33, 65, 68, 43, 23, 11, 31, 25, 39, 29, 10, 44, 57, 0, 37, 30, 34, 61, 2, 71, 67, 28, 3, 6, 47, 59, 62, 5, 48, 4, 56, 50, 42, 66, 36, 46, 40, 8, 21, 70, 9, 20, 45, 58, 52, 38, 51, 24, 54, 69, 32, 53, 41, 26, 60), 1386)
74: ((55, 18, 12, 14, 17, 1, 64, 16, 13, 72, 35, 73, 49, 63, 22, 19, 74, 27, 7, 15, 33, 65, 68, 43, 23, 11, 31, 25, 39, 29, 10, 44, 57, 0, 37, 30, 34, 61, 2, 71, 67, 28, 3, 6, 47, 59, 62, 5, 48, 4, 56, 50, 42, 66, 36, 46, 40, 8, 21, 70, 9, 20, 45, 58, 52, 38, 51, 24, 54, 69, 32, 53, 41, 26, 60), 1386)
75: ((55, 18, 12, 14, 17, 1, 64, 16, 13, 72, 35, 73, 49, 63, 22, 19, 74, 27, 7, 15, 33, 65, 68, 43, 23, 11, 31, 25, 39, 29, 10, 44, 57, 0, 37, 30, 34, 61, 2, 71, 67, 28, 3, 6, 47, 59, 62, 5, 48, 4, 56, 50, 42, 66, 36, 46, 40, 8, 21, 70, 9, 20, 45, 58, 52, 38, 51, 24, 54, 69, 32, 53, 41, 26, 60), 1386)
76: ((55, 18, 12, 14, 17, 1, 64, 16, 13, 72, 35, 73, 49, 63, 22, 19, 74, 27, 7, 15, 33, 65, 68, 43, 23, 11, 31, 25, 39, 29, 10, 44, 57, 0, 37, 30, 34, 61, 2, 71, 67, 28, 3, 6, 47, 59, 62, 5, 48, 4, 56, 50, 42, 66, 36, 46, 40, 8, 21, 70, 9, 20, 45, 58, 52, 38, 51, 24, 54, 69, 32, 53, 41, 26, 60), 1386)
77: ((55, 18, 12, 14, 17, 1, 64, 16, 13, 72, 35, 73, 49, 63, 22, 19, 74, 27, 7, 15, 33, 65, 68, 43, 23, 11, 31, 25, 39, 29, 10, 44, 57, 0, 37, 30, 34, 61, 2, 71, 67, 28, 3, 6, 47, 59, 62, 5, 48, 4, 56, 50, 42, 66, 36, 46, 40, 8, 21, 70, 9, 20, 45, 58, 52, 38, 51, 24, 54, 69, 32, 53, 41, 26, 60), 1386)
78: ((55, 18, 12, 14, 17, 1, 64, 16, 13, 72, 35, 73, 49, 63, 22, 19, 74, 27, 7, 15, 33, 65, 68, 43, 23, 11, 31, 25, 39, 29, 10, 44, 57, 0, 37, 30, 34, 61, 2, 71, 67, 28, 3, 6, 47, 59, 62, 5, 48, 4, 56, 50, 42, 66, 36, 46, 40, 8, 21, 70, 9, 20, 45, 58, 52, 38, 51, 24, 54, 69, 32, 53, 41, 26, 60), 1386)
79: ((55, 18, 12, 14, 17, 1, 64, 16, 13, 72, 35, 73, 49, 63, 22, 19, 74, 27, 7, 15, 33, 65, 68, 43, 23, 11, 31, 25, 39, 29, 10, 44, 57, 0, 37, 30, 34, 61, 2, 71, 67, 28, 3, 6, 47, 59, 62, 5, 48, 4, 56, 50, 42, 66, 36, 46, 40, 8, 21, 70, 9, 20, 45, 58, 52, 38, 51, 24, 54, 69, 32, 53, 41, 26, 60), 1386)
80: ((55, 18, 12, 14, 17, 1, 64, 16, 13, 72, 35, 73, 49, 63, 22, 19, 74, 27, 7, 15, 33, 65, 68, 43, 23, 11, 31, 25, 39, 29, 10, 44, 57, 0, 37, 30, 34, 61, 2, 71, 67, 28, 3, 6, 47, 59, 62, 5, 48, 4, 56, 50, 42, 66, 36, 46, 40, 8, 21, 70, 9, 20, 45, 58, 52, 38, 51, 24, 54, 69, 32, 53, 41, 26, 60), 1386)
81: ((55, 18, 12, 14, 17, 1, 64, 16, 13, 72, 35, 73, 49, 63, 22, 19, 74, 27, 7, 15, 33, 65, 68, 43, 23, 11, 31, 25, 39, 29, 10, 44, 57, 0, 37, 30, 34, 61, 2, 71, 67, 28, 3, 6, 47, 59, 62, 5, 48, 4, 56, 50, 42, 66, 36, 46, 40, 8, 21, 70, 9, 20, 45, 58, 52, 38, 51, 24, 54, 69, 32, 53, 41, 26, 60), 1386)
82: ((55, 18, 12, 14, 17, 1, 64, 16, 13, 72, 35, 73, 49, 63, 22, 19, 74, 27, 7, 15, 33, 65, 68, 43, 23, 11, 31, 25, 39, 29, 10, 44, 57, 0, 37, 30, 34, 61, 2, 71, 67, 28, 3, 6, 47, 59, 62, 5, 48, 4, 56, 50, 42, 66, 36, 46, 40, 8, 21, 70, 9, 20, 45, 58, 52, 38, 51, 24, 54, 69, 32, 53, 41, 26, 60), 1386)
83: ((55, 18, 12, 14, 17, 1, 64, 16, 13, 72, 35, 73, 49, 63, 22, 19, 74, 27, 7, 15, 33, 65, 68, 43, 23, 11, 31, 25, 39, 29, 10, 44, 57, 0, 37, 30, 34, 61, 2, 71, 67, 28, 3, 6, 47, 59, 62, 5, 48, 4, 56, 50, 42, 66, 36, 46, 40, 8, 21, 70, 9, 20, 45, 58, 52, 38, 51, 24, 54, 69, 32, 53, 41, 26, 60), 1386)
84: ((55, 18, 12, 14, 17, 1, 64, 16, 13, 72, 35, 73, 49, 63, 22, 19, 74, 27, 7, 15, 33, 65, 68, 43, 23, 11, 31, 25, 39, 29, 10, 44, 57, 0, 37, 30, 34, 61, 2, 71, 67, 28, 3, 6, 47, 59, 62, 5, 48, 4, 56, 50, 42, 66, 36, 46, 40, 8, 21, 70, 9, 20, 45, 58, 52, 38, 51, 24, 54, 69, 32, 53, 41, 26, 60), 1386)
85: ((55, 18, 12, 14, 17, 1, 64, 16, 13, 72, 35, 73, 49, 63, 22, 19, 74, 27, 7, 15, 33, 65, 68, 43, 23, 11, 31, 25, 39, 29, 10, 44, 57, 0, 37, 30, 34, 61, 2, 71, 67, 28, 3, 6, 47, 59, 62, 5, 48, 4, 56, 50, 42, 66, 36, 46, 40, 8, 21, 70, 9, 20, 45, 58, 52, 38, 51, 24, 54, 69, 32, 53, 41, 26, 60), 1386)
86: ((55, 18, 12, 14, 17, 1, 64, 16, 13, 72, 35, 73, 49, 63, 22, 19, 74, 27, 7, 15, 33, 65, 68, 43, 23, 11, 31, 25, 39, 29, 10, 44, 57, 0, 37, 30, 34, 61, 2, 71, 67, 28, 3, 6, 47, 59, 62, 5, 48, 4, 56, 50, 42, 66, 36, 46, 40, 8, 21, 70, 9, 20, 45, 58, 52, 38, 51, 24, 54, 69, 32, 53, 41, 26, 60), 1386)
87: ((55, 18, 12, 14, 17, 1, 64, 16, 13, 72, 35, 73, 49, 63, 22, 19, 74, 27, 7, 15, 33, 65, 68, 43, 23, 11, 31, 25, 39, 29, 10, 44, 57, 0, 37, 30, 34, 61, 2, 71, 67, 28, 3, 6, 47, 59, 62, 5, 48, 4, 56, 50, 42, 66, 36, 46, 40, 8, 21, 70, 9, 20, 45, 58, 52, 38, 51, 24, 54, 69, 32, 53, 41, 26, 60), 1386)
88: ((55, 18, 12, 14, 17, 1, 64, 16, 13, 72, 35, 73, 49, 63, 22, 19, 74, 27, 7, 15, 33, 65, 68, 43, 23, 11, 31, 25, 39, 29, 10, 44, 57, 0, 37, 30, 34, 61, 2, 71, 67, 28, 3, 6, 47, 59, 62, 5, 48, 4, 56, 50, 42, 66, 36, 46, 40, 8, 21, 70, 9, 20, 45, 58, 52, 38, 51, 24, 54, 69, 32, 53, 41, 26, 60), 1386)
89: ((55, 18, 12, 14, 17, 1, 64, 16, 13, 72, 35, 73, 49, 63, 22, 19, 74, 27, 7, 15, 33, 65, 68, 43, 23, 11, 31, 25, 39, 29, 10, 44, 57, 0, 37, 30, 34, 61, 2, 71, 67, 28, 3, 6, 47, 59, 62, 5, 48, 4, 56, 50, 42, 66, 36, 46, 40, 8, 21, 70, 9, 20, 45, 58, 52, 38, 51, 24, 54, 69, 32, 53, 41, 26, 60), 1386)
90: ((55, 18, 12, 14, 17, 1, 64, 16, 13, 72, 35, 73, 49, 63, 22, 19, 74, 27, 7, 15, 33, 65, 68, 43, 23, 11, 31, 25, 39, 29, 10, 44, 57, 0, 37, 30, 34, 61, 2, 71, 67, 28, 3, 6, 47, 59, 62, 5, 48, 4, 56, 50, 42, 66, 36, 46, 40, 8, 21, 70, 9, 20, 45, 58, 52, 38, 51, 24, 54, 69, 32, 53, 41, 26, 60), 1386)
91: ((55, 18, 12, 14, 17, 1, 64, 16, 13, 72, 35, 73, 49, 63, 22, 19, 74, 27, 7, 15, 33, 65, 68, 43, 23, 11, 31, 25, 39, 29, 10, 44, 57, 0, 37, 30, 34, 61, 2, 71, 67, 28, 3, 6, 47, 59, 62, 5, 48, 4, 56, 50, 42, 66, 36, 46, 40, 8, 21, 70, 9, 20, 45, 58, 52, 38, 51, 24, 54, 69, 32, 53, 41, 26, 60), 1386)
92: ((55, 18, 12, 14, 17, 1, 64, 16, 13, 72, 35, 73, 49, 63, 22, 19, 74, 27, 7, 15, 33, 65, 68, 43, 23, 11, 31, 25, 39, 29, 10, 44, 57, 0, 37, 30, 34, 61, 2, 71, 67, 28, 3, 6, 47, 59, 62, 5, 48, 4, 56, 50, 42, 66, 36, 46, 40, 8, 21, 70, 9, 20, 45, 58, 52, 38, 51, 24, 54, 69, 32, 53, 41, 26, 60), 1386)
93: ((55, 18, 12, 14, 17, 1, 64, 16, 13, 72, 35, 73, 49, 63, 22, 19, 74, 27, 7, 15, 33, 65, 68, 43, 23, 11, 31, 25, 39, 29, 10, 44, 57, 0, 37, 30, 34, 61, 2, 71, 67, 28, 3, 6, 47, 59, 62, 5, 48, 4, 56, 50, 42, 66, 36, 46, 40, 8, 21, 70, 9, 20, 45, 58, 52, 38, 51, 24, 54, 69, 32, 53, 41, 26, 60), 1386)
94: ((55, 18, 12, 14, 17, 1, 64, 16, 13, 72, 35, 73, 49, 63, 22, 19, 74, 27, 7, 15, 33, 65, 68, 43, 23, 11, 31, 25, 39, 29, 10, 44, 57, 0, 37, 30, 34, 61, 2, 71, 67, 28, 3, 6, 47, 59, 62, 5, 48, 4, 56, 50, 42, 66, 36, 46, 40, 8, 21, 70, 9, 20, 45, 58, 52, 38, 51, 24, 54, 69, 32, 53, 41, 26, 60), 1386)
95: ((55, 18, 12, 14, 17, 1, 64, 16, 13, 72, 35, 73, 49, 63, 22, 19, 74, 27, 7, 15, 33, 65, 68, 43, 23, 11, 31, 25, 39, 29, 10, 44, 57, 0, 37, 30, 34, 61, 2, 71, 67, 28, 3, 6, 47, 59, 62, 5, 48, 4, 56, 50, 42, 66, 36, 46, 40, 8, 21, 70, 9, 20, 45, 58, 52, 38, 51, 24, 54, 69, 32, 53, 41, 26, 60), 1386)
Best: ((55, 18, 12, 14, 17, 1, 64, 16, 13, 72, 35, 73, 49, 63, 22, 19, 74, 27, 7, 15, 33, 65, 68, 43, 23, 11, 31, 25, 39, 29, 10, 44, 57, 0, 37, 30, 34, 61, 2, 71, 67, 28, 3, 6, 47, 59, 62, 5, 48, 4, 56, 50, 42, 66, 36, 46, 40, 8, 21, 70, 9, 20, 45, 58, 52, 38, 51, 24, 54, 69, 32, 53, 41, 26, 60), 1386)
Runtime: 23.525468800000002 s